tsp_instances/TSP50/instance55.tsp
NODE_COORD_SECTION
0 136 35
1 54 48
2 89 51
3 149 96
4 153 87
5 67 64
6 92 55
7 167 27
8 6 130
9 98 85
10 138 32
11 107 78
12 85 71
13 14 54
14 139 49
15 169 159
16 178 181
17 163 26
18 71 55
19 107 8
20 31 7
21 80 33
22 61 14
23 42 186
24 193 9
25 149 146
26 97 89
27 184 26
28 142 56
29 77 100
30 176 112
31 59 146
32 158 48
33 57 70
34 35 91
35 49 8
36 159 99
37 45 30
38 188 75
39 6 181
40 93 60
41 14 169
42 55 44
43 50 131
44 2 122
45 101 173
46 142 191
47 145 23
48 47 79
49 130 82
