tsp_instances/TSP50/instance55.opt.tour
TOUR_SECTION
1
11
48
18
8
25
28
33
39
5
4
37
31
26
16
17
47
46
32
44
24
40
42
9
45
35
49
34
6
19
2
43
38
14
21
36
23
20
22
3
7
41
13
30
27
10
12
50
29
15
-1